18,5	0,0	13,6	9,3	0,0	0,0	0,0	0,0	0,0	13,7
18,9	8,7	0,0	5,1	12,6	0,0	0,0	7,6	0,0	0,0
0,0	0,0	13,7	0,0	11,0	7,5	0,0	0,0	10,7	0,0
7,9	0,0	12,5	0,0	0,0	0,0	6,2	0,0	0,0	0,0
0,0	19,8	0,0	13,8	10,1	0,0	0,0	13,5	0,0	0,0
0,0	11,4	12,2	0,0	10,2	13,3	0,0	0,0	7,2	0,0
0,0	19,6	0,0	6,2	0,0	0,0	6,8	0,0	0,0	9,5
7,8	0,0	16,0	0,0	0,0	0,0	0,0	0,0	0,0	10,1
0,0	18,0	0,0	12,8	15,9	0,0	0,0	7,0	0,0	0,0
0,0	0,0	14,1	0,0	0,0	12,4	11,0	0,0	0,0	8,0
									
3,1	4,5	4,9	3,8	3,6	3,1	2,8	3,5	4,2	3,2
